
Gurobi 13.0.1 (win64) logging started Fri Apr 10 01:54:39 2026

Set parameter LogFile to value "C:\Users\jiho\code\cloud_vmp_optimization\experiments\2604-chance-2sp-toy\results\runs\chance_2sp_toy_24vm_ratio_spot_heavy_od5_sp14_bj5_sc10_cap8_avg20_lam000\solver.log"
Set parameter Threads to value 8
Gurobi Optimizer version 13.0.1 build v13.0.1rc0 (win64 - Windows 11+.0 (26200.2))

CPU model: 13th Gen Intel(R) Core(TM) i9-13900K, instruction set [SSE2|AVX|AVX2]
Thread count: 24 physical cores, 32 logical processors, using up to 8 threads

Non-default parameters:
TimeLimit  7200
MIPGap  0.001
Threads  8

Optimize a model with 76956 rows, 42598 columns and 416960 nonzeros (Min)
Model fingerprint: 0x9dc9323c
Model has 7 linear objective coefficients
Variable types: 1680 continuous, 40918 integer (40918 binary)
Coefficient statistics:
  Matrix range     [2e-02, 4e+01]
  Objective range  [1e+00, 1e+00]
  Bounds range     [1e+00, 1e+00]
  RHS range        [1e-01, 2e+01]

Presolve removed 7392 rows and 3643 columns
Presolve time: 1.18s
Presolved: 69564 rows, 38955 columns, 400566 nonzeros
Variable types: 0 continuous, 38955 integer (38955 binary)

Deterministic concurrent LP optimizer: primal and dual simplex (primal and dual model)
Showing primal log only...

Root relaxation presolved: 69564 rows, 38955 columns, 400566 nonzeros


Root simplex log...

Iteration    Objective       Primal Inf.    Dual Inf.      Time
   19244    0.0000000e+00   1.480312e+00   8.104709e+08      5s
   23793    7.0000000e+00   0.000000e+00   7.000000e+00      9s
   24243    6.8846395e+00   0.000000e+00   8.586205e+02     10s
   27973    5.6421789e+00   0.000000e+00   8.466913e+02     15s
   31853    4.5630566e+00   0.000000e+00   4.005450e+02     20s
   36783    4.0486215e+00   0.000000e+00   5.217379e+02     25s
   41173    3.7875910e+00   0.000000e+00   6.286203e+02     30s
   44633    3.5918654e+00   0.000000e+00   3.582363e+02     35s
   48063    3.4391681e+00   0.000000e+00   3.142070e+02     40s
   51613    3.3145993e+00   0.000000e+00   5.934424e+02     45s
   54803    3.2139110e+00   0.000000e+00   4.897780e+03     50s
Warning: Markowitz tolerance tightened to 0.03125
   58243    3.1191901e+00   0.000000e+00   1.237041e+03     55s
   61363    3.0064075e+00   0.000000e+00   1.128868e+03     60s
   64003    2.9222521e+00   0.000000e+00   1.875909e+03     65s
   66323    2.8397198e+00   0.000000e+00   6.487945e+02     70s
   68373    2.7697898e+00   0.000000e+00   6.361315e+03     75s
   70553    2.6949832e+00   0.000000e+00   4.023309e+02     80s
   72673    2.6296279e+00   0.000000e+00   9.459675e+02     85s
   74613    2.5846064e+00   0.000000e+00   7.646234e+02     90s
   76573    2.5176878e+00   0.000000e+00   9.192469e+02     95s
   78603    2.4596229e+00   0.000000e+00   5.161175e+02    100s
   80043    2.4221737e+00   0.000000e+00   2.411493e+03    105s
   81533    2.3838832e+00   0.000000e+00   2.099907e+03    110s
   83073    2.3557469e+00   0.000000e+00   4.721568e+03    115s
   84363    2.3182317e+00   0.000000e+00   3.002048e+02    120s
   85853    2.2838664e+00   0.000000e+00   1.696727e+02    126s
   87003    2.2577300e+00   0.000000e+00   2.930151e+02    130s
   88473    2.2217464e+00   0.000000e+00   1.301907e+03    135s
   89653    2.1961688e+00   0.000000e+00   6.919867e+02    140s
   90953    2.1559093e+00   0.000000e+00   2.093016e+03    145s
   92193    2.1138328e+00   0.000000e+00   3.685237e+02    150s
   93463    2.0791963e+00   0.000000e+00   4.596150e+02    155s
   94903    2.0518674e+00   0.000000e+00   3.339280e+02    161s
   96153    2.0216024e+00   0.000000e+00   4.919597e+02    166s
   97423    1.9870757e+00   0.000000e+00   1.546603e+03    171s
   98763    1.9540847e+00   0.000000e+00   5.633190e+02    175s
  100363    1.9029565e+00   0.000000e+00   1.440612e+03    180s
  102183    1.8471660e+00   0.000000e+00   3.941585e+02    185s
Concurrent spin time: 42.25s (can be avoided by choosing Method=3)

Solved with dual simplex

Root relaxation: objective 1.000000e+00, 70174 iterations, 228.36 seconds (156.39 work units)

    Nodes    |    Current Node    |     Objective Bounds      |     Work
 Expl Unexpl |  Obj  Depth IntInf | Incumbent    BestBd   Gap | It/Node Time

     0     0    1.00000    0 25315          -    1.00000      -     -  801s
     0     0    1.41285    0 24059          -    1.41285      -     - 1071s
H    0     0                       7.0000000    1.41285  79.8%     - 1119s
     0     0    1.97361    0 22019    7.00000    1.97361  71.8%     - 1352s
     0     0    2.45015    0 20108    7.00000    2.45015  65.0%     - 1774s
     0     0    2.52790    0 18571    7.00000    2.52790  63.9%     - 2098s
     0     0    2.54738    0 18443    7.00000    2.54738  63.6%     - 2346s
     0     0    2.55439    0 18287    7.00000    2.55439  63.5%     - 2564s
     0     0    2.55659    0 18648    7.00000    2.55659  63.5%     - 2671s
     0     0    2.55695    0 18665    7.00000    2.55695  63.5%     - 2720s
     0     0    3.00000    0 8922    7.00000    3.00000  57.1%     - 3062s
     0     0    3.00000    0 8876    7.00000    3.00000  57.1%     - 3066s
     0     0    3.00000    0 8910    7.00000    3.00000  57.1%     - 3117s
     0     0    3.00000    0 8814    7.00000    3.00000  57.1%     - 3132s
     0     0    3.00000    0 8827    7.00000    3.00000  57.1%     - 3197s
     0     0    3.00000    0 8949    7.00000    3.00000  57.1%     - 3212s
     0     0    3.00000    0 8672    7.00000    3.00000  57.1%     - 3267s
     0     0    3.00000    0 3679    7.00000    3.00000  57.1%     - 3452s
H    0     0                       6.0000000    3.00000  50.0%     - 3453s
H    0     0                       5.0000000    3.00000  40.0%     - 3483s
     0     0    3.00000    0 4165    5.00000    3.00000  40.0%     - 3518s
     0     0    3.00000    0 4616    5.00000    3.00000  40.0%     - 3578s
     0     0    3.00000    0 3698    5.00000    3.00000  40.0%     - 3615s
     0     0    3.00000    0 5381    5.00000    3.00000  40.0%     - 3656s
     0     0    3.00000    0 5287    5.00000    3.00000  40.0%     - 3670s
     0     0    3.00000    0 6070    5.00000    3.00000  40.0%     - 3723s
     0     0    3.00000    0 6070    5.00000    3.00000  40.0%     - 3765s
     0     0    3.00000    0 6019    5.00000    3.00000  40.0%     - 3785s
     0     0    3.00000    0 6499    5.00000    3.00000  40.0%     - 3827s
     0     0    3.00000    0 6499    5.00000    3.00000  40.0%     - 3861s
     0     0    3.00000    0 6534    5.00000    3.00000  40.0%     - 3885s
     0     0    3.00000    0 6945    5.00000    3.00000  40.0%     - 3937s
     0     0    3.00000    0 6943    5.00000    3.00000  40.0%     - 3937s
     0     2    3.00000    0 6943    5.00000    3.00000  40.0%     - 3979s
     1     4    3.00000    1 6157    5.00000    3.00000  40.0% 39958 4082s
     2     5    4.00000    1 4691    5.00000    3.00000  40.0% 23384 4100s
     3     7    4.00000    2 3870    5.00000    3.00000  40.0% 16803 4200s
     6    12    4.00000    3 2857    5.00000    3.00000  40.0% 16419 4336s
    11    10 infeasible    4         5.00000    3.00000  40.0% 14356 4384s
    17    28    4.00000    5 2130    5.00000    3.00000  40.0% 10232 4427s
    37    53    4.00000    9 1302    5.00000    3.00000  40.0%  6124 4461s
    62    45    4.00000   13  824    5.00000    3.00000  40.0%  4025 4491s
    82    80    4.00000   14  757    5.00000    3.00000  40.0%  3136 4510s
   117   110    4.00000   19  652    5.00000    3.00000  40.0%  2368 4526s
   168   141    4.00000   20 1172    5.00000    3.00000  40.0%  1836 4531s
H  172   141                       4.0000000    3.00000  25.0%  1806 4531s
   180   104     cutoff   20         4.00000    3.00000  25.0%  1750 4543s
   217   102     cutoff   21         4.00000    3.00000  25.0%  1452 4560s
   220     9    3.00000    0 4616    4.00000    3.00000  25.0%  1432 4655s
   222    10    3.00000    0 5058    4.00000    3.00000  25.0%  1419 4690s
   223    11    3.00000    0 6238    4.00000    3.00000  25.0%  1413 4714s
   224    12    3.00000    0 6697    4.00000    3.00000  25.0%  1406 4743s
   225    12    3.00000    0 5009    4.00000    3.00000  25.0%  1400 4948s
   226    13    3.00000    0 6203    4.00000    3.00000  25.0%  1394 5052s
   227    14    3.00000    0 5527    4.00000    3.00000  25.0%  1388 5270s
   228    14    3.00000    0 6713    4.00000    3.00000  25.0%  1382 5354s
   229    15    3.00000    0 5376    4.00000    3.00000  25.0%  1376 5571s
   230    16    3.00000    0 6121    4.00000    3.00000  25.0%  1370 5656s
   231    16    3.00000    0 6694    4.00000    3.00000  25.0%  1364 5905s
   232    17    3.00000    0 7642    4.00000    3.00000  25.0%  1358 5940s
   233    18    3.00000    0 6189    4.00000    3.00000  25.0%  1352 6154s
   234    18    3.00000    0 6666    4.00000    3.00000  25.0%  1346 6191s
   235    19    3.00000    0 7108    4.00000    3.00000  25.0%  1340 6459s
   236    20    3.00000    0 7841    4.00000    3.00000  25.0%  1335 6480s
   237    20    3.00000    0 5638    4.00000    3.00000  25.0%  1329 6639s
   238    21    3.00000    0 6705    4.00000    3.00000  25.0%  1324 6662s
   239    22    3.00000    0 5870    4.00000    3.00000  25.0%  1318 6819s
   240    22    3.00000    0 6976    4.00000    3.00000  25.0%  1312 6845s
   241    23    3.00000    0 6289    4.00000    3.00000  25.0%  1307 6992s
   242    24    3.00000    0 5254    4.00000    3.00000  25.0%  1302 7067s
   243    24    3.00000    0 5254    4.00000    3.00000  25.0%  1296 7155s

Cutting planes:
  Gomory: 78
  MIR: 46
  StrongCG: 7
  Flow cover: 12
  Zero half: 4
  RLT: 135
  Relax-and-lift: 9

Explored 243 nodes (2702060 simplex iterations) in 7200.07 seconds (5400.40 work units)
Thread count was 8 (of 32 available processors)

Solution count 4: 4 5 6 7 

Time limit reached
Best objective 4.000000000000e+00, best bound 3.000000000000e+00, gap 25.0000%
